p cnf 200 1110
-101 65 0
-101 27 0
-101 97 0
-101 29 0
-101 76 0
-101 67 0
-101 91 0
-101 50 0
-101 -45 0
-101 25 0
101 -65 -27 -97 -29 -76 -67 -91 -50 45 -25 0
-102 -62 0
-102 20 0
-102 -43 0
-102 -36 0
-102 -15 0
-102 -82 0
-102 74 0
-102 38 0
-102 39 0
-102 48 0
102 62 -20 43 36 15 82 -74 -38 -39 -48 0
-103 -3 0
-103 -74 0
-103 21 0
-103 -55 0
-103 68 0
-103 -47 0
-103 30 0
-103 7 0
-103 35 0
-103 85 0
103 3 74 -21 55 -68 47 -30 -7 -35 -85 0
-104 69 0
-104 11 0
-104 96 0
-104 93 0
-104 -49 0
-104 4 0
-104 17 0
-104 25 0
-104 -84 0
-104 -64 0
104 -69 -11 -96 -93 49 -4 -17 -25 84 64 0
-105 27 0
-105 47 0
-105 -3 0
-105 -70 0
-105 -16 0
-105 -53 0
-105 62 0
-105 -52 0
-105 36 0
-105 -11 0
105 -27 -47 3 70 16 53 -62 52 -36 11 0
-106 7 0
-106 71 0
-106 53 0
-106 -50 0
-106 -83 0
-106 67 0
-106 -81 0
-106 57 0
-106 90 0
-106 -62 0
106 -7 -71 -53 50 83 -67 81 -57 -90 62 0
-107 84 0
-107 91 0
-107 -78 0
-107 71 0
-107 -81 0
-107 69 0
-107 100 0
-107 20 0
-107 -52 0
-107 -19 0
107 -84 -91 78 -71 81 -69 -100 -20 52 19 0
-108 72 0
-108 -2 0
-108 30 0
-108 -20 0
-108 -23 0
-108 6 0
-108 -18 0
-108 -36 0
-108 53 0
-108 55 0
108 -72 2 -30 20 23 -6 18 36 -53 -55 0
-109 23 0
-109 -7 0
-109 38 0
-109 -32 0
-109 -73 0
-109 88 0
-109 46 0
-109 4 0
-109 -67 0
-109 -89 0
109 -23 7 -38 32 73 -88 -46 -4 67 89 0
-110 34 0
-110 -13 0
-110 -47 0
-110 91 0
-110 -58 0
-110 -32 0
-110 59 0
-110 -52 0
-110 55 0
-110 93 0
110 -34 13 47 -91 58 32 -59 52 -55 -93 0
101 102 103 104 105 106 107 108 109 110 0
-111 71 0
-111 -60 0
-111 -13 0
-111 -87 0
-111 34 0
-111 88 0
-111 -6 0
-111 -8 0
-111 42 0
-111 -62 0
111 -71 60 13 87 -34 -88 6 8 -42 62 0
-112 65 0
-112 -24 0
-112 -1 0
-112 58 0
-112 90 0
-112 -50 0
-112 56 0
-112 -91 0
-112 -74 0
-112 -32 0
112 -65 24 1 -58 -90 50 -56 91 74 32 0
-113 -56 0
-113 66 0
-113 9 0
-113 70 0
-113 -2 0
-113 -74 0
-113 88 0
-113 -58 0
-113 32 0
-113 -95 0
113 56 -66 -9 -70 2 74 -88 58 -32 95 0
-114 70 0
-114 12 0
-114 -52 0
-114 89 0
-114 57 0
-114 93 0
-114 -54 0
-114 7 0
-114 -63 0
-114 -13 0
114 -70 -12 52 -89 -57 -93 54 -7 63 13 0
-115 35 0
-115 14 0
-115 75 0
-115 59 0
-115 74 0
-115 9 0
-115 -68 0
-115 17 0
-115 11 0
-115 28 0
115 -35 -14 -75 -59 -74 -9 68 -17 -11 -28 0
-116 86 0
-116 -10 0
-116 -68 0
-116 -39 0
-116 5 0
-116 -14 0
-116 -6 0
-116 34 0
-116 42 0
-116 1 0
116 -86 10 68 39 -5 14 6 -34 -42 -1 0
-117 -86 0
-117 -39 0
-117 94 0
-117 -21 0
-117 -10 0
-117 -73 0
-117 -28 0
-117 27 0
-117 55 0
-117 -41 0
117 86 39 -94 21 10 73 28 -27 -55 41 0
-118 77 0
-118 63 0
-118 -50 0
-118 85 0
-118 -5 0
-118 -14 0
-118 -61 0
-118 91 0
-118 -37 0
-118 -65 0
118 -77 -63 50 -85 5 14 61 -91 37 65 0
-119 64 0
-119 35 0
-119 49 0
-119 33 0
-119 -22 0
-119 -50 0
-119 -44 0
-119 13 0
-119 27 0
-119 76 0
119 -64 -35 -49 -33 22 50 44 -13 -27 -76 0
-120 92 0
-120 25 0
-120 53 0
-120 -6 0
-120 69 0
-120 -99 0
-120 29 0
-120 -76 0
-120 63 0
-120 50 0
120 -92 -25 -53 6 -69 99 -29 76 -63 -50 0
111 112 113 114 115 116 117 118 119 120 0
-121 48 0
-121 -3 0
-121 -23 0
-121 -60 0
-121 -65 0
-121 -11 0
-121 81 0
-121 27 0
-121 4 0
-121 12 0
121 -48 3 23 60 65 11 -81 -27 -4 -12 0
-122 85 0
-122 -81 0
-122 -15 0
-122 35 0
-122 60 0
-122 -2 0
-122 -92 0
-122 -8 0
-122 89 0
-122 -84 0
122 -85 81 15 -35 -60 2 92 8 -89 84 0
-123 -43 0
-123 61 0
-123 27 0
-123 -48 0
-123 -94 0
-123 -24 0
-123 -4 0
-123 85 0
-123 -30 0
-123 -83 0
123 43 -61 -27 48 94 24 4 -85 30 83 0
-124 57 0
-124 10 0
-124 61 0
-124 -67 0
-124 -26 0
-124 58 0
-124 51 0
-124 40 0
-124 48 0
-124 -75 0
124 -57 -10 -61 67 26 -58 -51 -40 -48 75 0
-125 -22 0
-125 -36 0
-125 31 0
-125 -85 0
-125 64 0
-125 -21 0
-125 -52 0
-125 37 0
-125 25 0
-125 53 0
125 22 36 -31 85 -64 21 52 -37 -25 -53 0
-126 -46 0
-126 80 0
-126 -68 0
-126 -62 0
-126 -86 0
-126 -92 0
-126 77 0
-126 -1 0
-126 -36 0
-126 -11 0
126 46 -80 68 62 86 92 -77 1 36 11 0
-127 -73 0
-127 -40 0
-127 -5 0
-127 -9 0
-127 -71 0
-127 -82 0
-127 29 0
-127 36 0
-127 34 0
-127 55 0
127 73 40 5 9 71 82 -29 -36 -34 -55 0
-128 4 0
-128 23 0
-128 -58 0
-128 47 0
-128 -78 0
-128 85 0
-128 -42 0
-128 9 0
-128 -68 0
-128 -73 0
128 -4 -23 58 -47 78 -85 42 -9 68 73 0
-129 4 0
-129 -50 0
-129 -66 0
-129 -53 0
-129 14 0
-129 -89 0
-129 49 0
-129 57 0
-129 -73 0
-129 -61 0
129 -4 50 66 53 -14 89 -49 -57 73 61 0
-130 -72 0
-130 98 0
-130 -78 0
-130 -80 0
-130 -45 0
-130 57 0
-130 90 0
-130 4 0
-130 99 0
-130 15 0
130 72 -98 78 80 45 -57 -90 -4 -99 -15 0
121 122 123 124 125 126 127 128 129 130 0
-131 -36 0
-131 -68 0
-131 72 0
-131 91 0
-131 87 0
-131 66 0
-131 -3 0
-131 21 0
-131 -83 0
-131 40 0
131 36 68 -72 -91 -87 -66 3 -21 83 -40 0
-132 -51 0
-132 74 0
-132 29 0
-132 78 0
-132 -6 0
-132 72 0
-132 92 0
-132 -47 0
-132 -41 0
-132 7 0
132 51 -74 -29 -78 6 -72 -92 47 41 -7 0
-133 -24 0
-133 100 0
-133 98 0
-133 -51 0
-133 -90 0
-133 -99 0
-133 -30 0
-133 -87 0
-133 -60 0
-133 -71 0
133 24 -100 -98 51 90 99 30 87 60 71 0
-134 26 0
-134 66 0
-134 27 0
-134 -84 0
-134 23 0
-134 -36 0
-134 57 0
-134 -61 0
-134 87 0
-134 33 0
134 -26 -66 -27 84 -23 36 -57 61 -87 -33 0
-135 34 0
-135 15 0
-135 -77 0
-135 47 0
-135 -9 0
-135 60 0
-135 -51 0
-135 71 0
-135 10 0
-135 -59 0
135 -34 -15 77 -47 9 -60 51 -71 -10 59 0
-136 23 0
-136 68 0
-136 59 0
-136 -24 0
-136 -16 0
-136 25 0
-136 -21 0
-136 -14 0
-136 -20 0
-136 5 0
136 -23 -68 -59 24 16 -25 21 14 20 -5 0
-137 -57 0
-137 -10 0
-137 -5 0
-137 -86 0
-137 8 0
-137 35 0
-137 69 0
-137 -29 0
-137 -61 0
-137 58 0
137 57 10 5 86 -8 -35 -69 29 61 -58 0
-138 88 0
-138 38 0
-138 8 0
-138 76 0
-138 -54 0
-138 58 0
-138 -27 0
-138 -45 0
-138 -20 0
-138 17 0
138 -88 -38 -8 -76 54 -58 27 45 20 -17 0
-139 -74 0
-139 77 0
-139 49 0
-139 54 0
-139 16 0
-139 62 0
-139 -34 0
-139 -88 0
-139 -89 0
-139 -31 0
139 74 -77 -49 -54 -16 -62 34 88 89 31 0
-140 45 0
-140 -44 0
-140 35 0
-140 9 0
-140 -59 0
-140 43 0
-140 -75 0
-140 -33 0
-140 -87 0
-140 -31 0
140 -45 44 -35 -9 59 -43 75 33 87 31 0
131 132 133 134 135 136 137 138 139 140 0
-141 -65 0
-141 89 0
-141 -67 0
-141 82 0
-141 -87 0
-141 -55 0
-141 -84 0
-141 97 0
-141 51 0
-141 80 0
141 65 -89 67 -82 87 55 84 -97 -51 -80 0
-142 -7 0
-142 1 0
-142 84 0
-142 -88 0
-142 -50 0
-142 28 0
-142 -21 0
-142 46 0
-142 35 0
-142 -3 0
142 7 -1 -84 88 50 -28 21 -46 -35 3 0
-143 -42 0
-143 -67 0
-143 -29 0
-143 -79 0
-143 -51 0
-143 58 0
-143 27 0
-143 -68 0
-143 30 0
-143 -47 0
143 42 67 29 79 51 -58 -27 68 -30 47 0
-144 22 0
-144 48 0
-144 -7 0
-144 51 0
-144 16 0
-144 74 0
-144 1 0
-144 -32 0
-144 33 0
-144 41 0
144 -22 -48 7 -51 -16 -74 -1 32 -33 -41 0
-145 27 0
-145 -50 0
-145 -34 0
-145 -57 0
-145 -74 0
-145 3 0
-145 -45 0
-145 46 0
-145 -79 0
-145 28 0
145 -27 50 34 57 74 -3 45 -46 79 -28 0
-146 54 0
-146 -97 0
-146 75 0
-146 95 0
-146 14 0
-146 -76 0
-146 28 0
-146 -94 0
-146 8 0
-146 -83 0
146 -54 97 -75 -95 -14 76 -28 94 -8 83 0
-147 -27 0
-147 46 0
-147 73 0
-147 2 0
-147 -82 0
-147 -66 0
-147 -5 0
-147 51 0
-147 -24 0
-147 -71 0
147 27 -46 -73 -2 82 66 5 -51 24 71 0
-148 13 0
-148 -39 0
-148 14 0
-148 -44 0
-148 53 0
-148 30 0
-148 -2 0
-148 -93 0
-148 -41 0
-148 37 0
148 -13 39 -14 44 -53 -30 2 93 41 -37 0
-149 -15 0
-149 9 0
-149 -61 0
-149 40 0
-149 29 0
-149 81 0
-149 -38 0
-149 70 0
-149 -71 0
-149 -80 0
149 15 -9 61 -40 -29 -81 38 -70 71 80 0
-150 88 0
-150 10 0
-150 -54 0
-150 95 0
-150 84 0
-150 33 0
-150 22 0
-150 -20 0
-150 -70 0
-150 -56 0
150 -88 -10 54 -95 -84 -33 -22 20 70 56 0
141 142 143 144 145 146 147 148 149 150 0
-151 -66 0
-151 76 0
-151 36 0
-151 -88 0
-151 87 0
-151 -38 0
-151 65 0
-151 100 0
-151 7 0
-151 52 0
151 66 -76 -36 88 -87 38 -65 -100 -7 -52 0
-152 -22 0
-152 56 0
-152 99 0
-152 -13 0
-152 -31 0
-152 3 0
-152 19 0
-152 -85 0
-152 -41 0
-152 -72 0
152 22 -56 -99 13 31 -3 -19 85 41 72 0
-153 -8 0
-153 27 0
-153 10 0
-153 -39 0
-153 -79 0
-153 -88 0
-153 -5 0
-153 93 0
-153 -89 0
-153 -36 0
153 8 -27 -10 39 79 88 5 -93 89 36 0
-154 -1 0
-154 -22 0
-154 12 0
-154 -14 0
-154 -83 0
-154 -44 0
-154 48 0
-154 38 0
-154 66 0
-154 -63 0
154 1 22 -12 14 83 44 -48 -38 -66 63 0
-155 -61 0
-155 -24 0
-155 -56 0
-155 -45 0
-155 -85 0
-155 -36 0
-155 -4 0
-155 -41 0
-155 48 0
-155 -50 0
155 61 24 56 45 85 36 4 41 -48 50 0
-156 -80 0
-156 29 0
-156 -45 0
-156 56 0
-156 13 0
-156 -73 0
-156 -100 0
-156 8 0
-156 -71 0
-156 87 0
156 80 -29 45 -56 -13 73 100 -8 71 -87 0
-157 -48 0
-157 -49 0
-157 8 0
-157 -98 0
-157 60 0
-157 -19 0
-157 -70 0
-157 -85 0
-157 27 0
-157 45 0
157 48 49 -8 98 -60 19 70 85 -27 -45 0
-158 -51 0
-158 -63 0
-158 -53 0
-158 35 0
-158 -14 0
-158 98 0
-158 45 0
-158 70 0
-158 -81 0
-158 99 0
158 51 63 53 -35 14 -98 -45 -70 81 -99 0
-159 18 0
-159 -1 0
-159 -98 0
-159 -86 0
-159 96 0
-159 28 0
-159 84 0
-159 -11 0
-159 71 0
-159 -94 0
159 -18 1 98 86 -96 -28 -84 11 -71 94 0
-160 -57 0
-160 37 0
-160 24 0
-160 -36 0
-160 47 0
-160 58 0
-160 69 0
-160 -46 0
-160 68 0
-160 18 0
160 57 -37 -24 36 -47 -58 -69 46 -68 -18 0
151 152 153 154 155 156 157 158 159 160 0
-161 59 0
-161 36 0
-161 20 0
-161 -55 0
-161 26 0
-161 45 0
-161 93 0
-161 51 0
-161 -49 0
-161 -94 0
161 -59 -36 -20 55 -26 -45 -93 -51 49 94 0
-162 -76 0
-162 14 0
-162 -71 0
-162 61 0
-162 85 0
-162 -26 0
-162 -7 0
-162 4 0
-162 24 0
-162 -91 0
162 76 -14 71 -61 -85 26 7 -4 -24 91 0
-163 65 0
-163 -37 0
-163 -4 0
-163 -61 0
-163 51 0
-163 69 0
-163 52 0
-163 -10 0
-163 -93 0
-163 6 0
163 -65 37 4 61 -51 -69 -52 10 93 -6 0
-164 -15 0
-164 38 0
-164 99 0
-164 -30 0
-164 97 0
-164 -94 0
-164 -96 0
-164 -23 0
-164 -66 0
-164 80 0
164 15 -38 -99 30 -97 94 96 23 66 -80 0
-165 67 0
-165 99 0
-165 -64 0
-165 -23 0
-165 34 0
-165 -95 0
-165 50 0
-165 57 0
-165 47 0
-165 -89 0
165 -67 -99 64 23 -34 95 -50 -57 -47 89 0
-166 -56 0
-166 -6 0
-166 -43 0
-166 80 0
-166 -59 0
-166 -8 0
-166 27 0
-166 -9 0
-166 -4 0
-166 -99 0
166 56 6 43 -80 59 8 -27 9 4 99 0
-167 -1 0
-167 9 0
-167 66 0
-167 -19 0
-167 62 0
-167 -67 0
-167 74 0
-167 -2 0
-167 11 0
-167 -52 0
167 1 -9 -66 19 -62 67 -74 2 -11 52 0
-168 -71 0
-168 -13 0
-168 5 0
-168 -78 0
-168 -28 0
-168 -44 0
-168 19 0
-168 80 0
-168 -62 0
-168 84 0
168 71 13 -5 78 28 44 -19 -80 62 -84 0
-169 -12 0
-169 70 0
-169 -21 0
-169 -83 0
-169 43 0
-169 51 0
-169 14 0
-169 -39 0
-169 97 0
-169 -31 0
169 12 -70 21 83 -43 -51 -14 39 -97 31 0
-170 -31 0
-170 16 0
-170 59 0
-170 87 0
-170 -12 0
-170 -41 0
-170 2 0
-170 74 0
-170 38 0
-170 -35 0
170 31 -16 -59 -87 12 41 -2 -74 -38 35 0
161 162 163 164 165 166 167 168 169 170 0
-171 98 0
-171 35 0
-171 56 0
-171 -1 0
-171 -17 0
-171 48 0
-171 38 0
-171 74 0
-171 22 0
-171 83 0
171 -98 -35 -56 1 17 -48 -38 -74 -22 -83 0
-172 59 0
-172 -32 0
-172 -23 0
-172 78 0
-172 40 0
-172 -80 0
-172 44 0
-172 -3 0
-172 -17 0
-172 -72 0
172 -59 32 23 -78 -40 80 -44 3 17 72 0
-173 9 0
-173 -7 0
-173 18 0
-173 15 0
-173 97 0
-173 69 0
-173 -8 0
-173 -75 0
-173 14 0
-173 -34 0
173 -9 7 -18 -15 -97 -69 8 75 -14 34 0
-174 35 0
-174 -52 0
-174 74 0
-174 -32 0
-174 20 0
-174 99 0
-174 -41 0
-174 33 0
-174 1 0
-174 77 0
174 -35 52 -74 32 -20 -99 41 -33 -1 -77 0
-175 93 0
-175 78 0
-175 33 0
-175 35 0
-175 -52 0
-175 -87 0
-175 71 0
-175 26 0
-175 30 0
-175 -47 0
175 -93 -78 -33 -35 52 87 -71 -26 -30 47 0
-176 -8 0
-176 74 0
-176 -58 0
-176 25 0
-176 95 0
-176 -24 0
-176 -47 0
-176 60 0
-176 -54 0
-176 62 0
176 8 -74 58 -25 -95 24 47 -60 54 -62 0
-177 29 0
-177 -92 0
-177 20 0
-177 -95 0
-177 -75 0
-177 11 0
-177 -23 0
-177 -42 0
-177 31 0
-177 13 0
177 -29 92 -20 95 75 -11 23 42 -31 -13 0
-178 13 0
-178 17 0
-178 -47 0
-178 -96 0
-178 83 0
-178 -95 0
-178 12 0
-178 -86 0
-178 -2 0
-178 84 0
178 -13 -17 47 96 -83 95 -12 86 2 -84 0
-179 -2 0
-179 -49 0
-179 -7 0
-179 65 0
-179 -37 0
-179 -18 0
-179 -69 0
-179 59 0
-179 63 0
-179 81 0
179 2 49 7 -65 37 18 69 -59 -63 -81 0
-180 32 0
-180 62 0
-180 -97 0
-180 52 0
-180 -13 0
-180 100 0
-180 49 0
-180 45 0
-180 1 0
-180 77 0
180 -32 -62 97 -52 13 -100 -49 -45 -1 -77 0
171 172 173 174 175 176 177 178 179 180 0
-181 -6 0
-181 -20 0
-181 30 0
-181 73 0
-181 51 0
-181 81 0
-181 17 0
-181 18 0
-181 -84 0
-181 -1 0
181 6 20 -30 -73 -51 -81 -17 -18 84 1 0
-182 -60 0
-182 25 0
-182 95 0
-182 46 0
-182 -90 0
-182 -99 0
-182 44 0
-182 -61 0
-182 -88 0
-182 93 0
182 60 -25 -95 -46 90 99 -44 61 88 -93 0
-183 74 0
-183 -53 0
-183 99 0
-183 -64 0
-183 78 0
-183 71 0
-183 -54 0
-183 47 0
-183 -49 0
-183 22 0
183 -74 53 -99 64 -78 -71 54 -47 49 -22 0
-184 -61 0
-184 46 0
-184 -19 0
-184 -57 0
-184 35 0
-184 51 0
-184 4 0
-184 -38 0
-184 9 0
-184 65 0
184 61 -46 19 57 -35 -51 -4 38 -9 -65 0
-185 59 0
-185 -91 0
-185 -98 0
-185 10 0
-185 35 0
-185 -4 0
-185 -36 0
-185 82 0
-185 56 0
-185 41 0
185 -59 91 98 -10 -35 4 36 -82 -56 -41 0
-186 -73 0
-186 -55 0
-186 -12 0
-186 83 0
-186 36 0
-186 -4 0
-186 44 0
-186 -72 0
-186 15 0
-186 52 0
186 73 55 12 -83 -36 4 -44 72 -15 -52 0
-187 30 0
-187 33 0
-187 -85 0
-187 7 0
-187 -78 0
-187 73 0
-187 63 0
-187 -37 0
-187 99 0
-187 28 0
187 -30 -33 85 -7 78 -73 -63 37 -99 -28 0
-188 57 0
-188 91 0
-188 -84 0
-188 -7 0
-188 -23 0
-188 31 0
-188 29 0
-188 76 0
-188 9 0
-188 77 0
188 -57 -91 84 7 23 -31 -29 -76 -9 -77 0
-189 73 0
-189 69 0
-189 -77 0
-189 10 0
-189 -24 0
-189 87 0
-189 -62 0
-189 -6 0
-189 -40 0
-189 -44 0
189 -73 -69 77 -10 24 -87 62 6 40 44 0
-190 56 0
-190 -98 0
-190 37 0
-190 -47 0
-190 -32 0
-190 40 0
-190 -54 0
-190 -52 0
-190 -51 0
-190 -16 0
190 -56 98 -37 47 32 -40 54 52 51 16 0
181 182 183 184 185 186 187 188 189 190 0
-191 -36 0
-191 -15 0
-191 93 0
-191 97 0
-191 5 0
-191 91 0
-191 11 0
-191 45 0
-191 -66 0
-191 -61 0
191 36 15 -93 -97 -5 -91 -11 -45 66 61 0
-192 -89 0
-192 66 0
-192 58 0
-192 80 0
-192 -78 0
-192 27 0
-192 18 0
-192 -1 0
-192 -44 0
-192 60 0
192 89 -66 -58 -80 78 -27 -18 1 44 -60 0
-193 -35 0
-193 77 0
-193 84 0
-193 98 0
-193 10 0
-193 71 0
-193 15 0
-193 82 0
-193 14 0
-193 -48 0
193 35 -77 -84 -98 -10 -71 -15 -82 -14 48 0
-194 -72 0
-194 -80 0
-194 -26 0
-194 83 0
-194 88 0
-194 -10 0
-194 78 0
-194 1 0
-194 -48 0
-194 16 0
194 72 80 26 -83 -88 10 -78 -1 48 -16 0
-195 47 0
-195 44 0
-195 -75 0
-195 -91 0
-195 24 0
-195 73 0
-195 -70 0
-195 -92 0
-195 -97 0
-195 63 0
195 -47 -44 75 91 -24 -73 70 92 97 -63 0
-196 -45 0
-196 -87 0
-196 43 0
-196 -22 0
-196 73 0
-196 6 0
-196 -5 0
-196 -3 0
-196 34 0
-196 77 0
196 45 87 -43 22 -73 -6 5 3 -34 -77 0
-197 -10 0
-197 61 0
-197 -40 0
-197 -77 0
-197 98 0
-197 -95 0
-197 -51 0
-197 -31 0
-197 96 0
-197 90 0
197 10 -61 40 77 -98 95 51 31 -96 -90 0
-198 -76 0
-198 -100 0
-198 -55 0
-198 -49 0
-198 87 0
-198 -20 0
-198 74 0
-198 -28 0
-198 53 0
-198 21 0
198 76 100 55 49 -87 20 -74 28 -53 -21 0
-199 -94 0
-199 -87 0
-199 -30 0
-199 50 0
-199 -60 0
-199 51 0
-199 77 0
-199 -82 0
-199 21 0
-199 5 0
199 94 87 30 -50 60 -51 -77 82 -21 -5 0
-200 -84 0
-200 -76 0
-200 48 0
-200 -71 0
-200 3 0
-200 47 0
-200 28 0
-200 -60 0
-200 61 0
-200 -49 0
200 84 76 -48 71 -3 -47 -28 60 -61 49 0
191 192 193 194 195 196 197 198 199 200 0
